g3 1 1 0	# problem unknown
 4 0 1 0 0 	# vars, constraints, objectives, general inequalities, equalities  
 0 1 	# nonlinear constraints, objectives
 0 0	# network constraints: nonlinear, linear
 0 4 0 	# nonlinear vars in constraints, objectives, both
 0 0 0 1	# linear network variables; functions; arith, flags
 0 0 0 0 0 	# discrete variables: binary, integer, nonlinear (b,c,o)
 0 4 	# nonzeros in Jacobian, obj. gradient
 0 0	# max name lengths: constraints, variables
 0 0 0 0 0	# common exprs: b,c,o,c1,o1
O0 0
o54
31
o5
o0
n78.596218
o0
o2
n-3.20038861537
v0
o2
n-1
o3
v1
o0
v2
o3
o2
n3.20038861537
n1
v3
n2
o5
o0
n65.77963
o0
o2
n-3.04617331824
v0
o2
n-1
o3
v1
o0
v2
o3
o2
n3.04617331824
n1
v3
n2
o5
o0
n43.96947
o0
o2
n-2.74917291197
v0
o2
n-1
o3
v1
o0
v2
o3
o2
n2.74917291197
n1
v3
n2
o5
o0
n27.038816
o0
o2
n-2.46740007362
v0
o2
n-1
o3
v1
o0
v2
o3
o2
n2.46740007362
n1
v3
n2
o5
o0
n14.6126
o0
o2
n-2.2008612609
v0
o2
n-1
o3
v1
o0
v2
o3
o2
n2.2008612609
n1
v3
n2
o5
o0
n6.2614
o0
o2
n-1.94955036517
v0
o2
n-1
o3
v1
o0
v2
o3
o2
n1.94955036517
n1
v3
n2
o5
o0
n1.53833
o0
o2
n-1.71347314601
v0
o2
n-1
o3
v1
o0
v2
o3
o2
n1.71347314601
n1
v3
n2
o5
o0
o2
n-1.48501520654
v0
o2
n-1
o3
v1
o0
v2
o3
o2
n1.48501520654
n1
v3
n2
o5
o0
n1.188045
o0
o2
n-1.2870085673
v0
o2
n-1
o3
v1
o0
v2
o3
o2
n1.2870085673
n1
v3
n2
o5
o0
n4.6841
o0
o2
n-1.0966236512
v0
o2
n-1
o3
v1
o0
v2
o3
o2
n1.0966236512
n1
v3
n2
o5
o0
n16.9321
o0
o2
n-0.761544202225
v0
o2
n-1
o3
v1
o0
v2
o3
o2
n0.761544202225
n1
v3
n2
o5
o0
n33.6988
o0
o2
n-0.487388289424
v0
o2
n-1
o3
v1
o0
v2
o3
o2
n0.487388289424
n1
v3
n2
o5
o0
n52.3664
o0
o2
n-0.274155912801
v0
o2
n-1
o3
v1
o0
v2
o3
o2
n0.274155912801
n1
v3
n2
o5
o0
n70.163
o0
o2
n-0.121847072356
v0
o2
n-1
o3
v1
o0
v2
o3
o2
n0.121847072356
n1
v3
n2
o5
o0
n83.4221
o0
o2
n-0.030461768089
v0
o2
n-1
o3
v1
o0
v2
o3
o2
n0.030461768089
n1
v3
n2
o5
o0
n88.3995
o2
n-1
o3
v1
v2
n2
o5
o0
n78.596218
o0
o2
n-3.20038861537
v0
o2
n-1
o3
v1
o0
v2
o3
o2
n3.20038861537
n1
v3
n2
o5
o0
n65.77963
o0
o2
n-3.04617331824
v0
o2
n-1
o3
v1
o0
v2
o3
o2
n3.04617331824
n1
v3
n2
o5
o0
n43.96947
o0
o2
n-2.74917291197
v0
o2
n-1
o3
v1
o0
v2
o3
o2
n2.74917291197
n1
v3
n2
o5
o0
n27.038816
o0
o2
n-2.46740007362
v0
o2
n-1
o3
v1
o0
v2
o3
o2
n2.46740007362
n1
v3
n2
o5
o0
n14.6126
o0
o2
n-2.2008612609
v0
o2
n-1
o3
v1
o0
v2
o3
o2
n2.2008612609
n1
v3
n2
o5
o0
n6.2614
o0
o2
n-1.94955036517
v0
o2
n-1
o3
v1
o0
v2
o3
o2
n1.94955036517
n1
v3
n2
o5
o0
n1.53833
o0
o2
n-1.71347314601
v0
o2
n-1
o3
v1
o0
v2
o3
o2
n1.71347314601
n1
v3
n2
o5
o0
o2
n-1.48501520654
v0
o2
n-1
o3
v1
o0
v2
o3
o2
n1.48501520654
n1
v3
n2
o5
o0
n1.188045
o0
o2
n-1.2870085673
v0
o2
n-1
o3
v1
o0
v2
o3
o2
n1.2870085673
n1
v3
n2
o5
o0
n4.6841
o0
o2
n-1.0966236512
v0
o2
n-1
o3
v1
o0
v2
o3
o2
n1.0966236512
n1
v3
n2
o5
o0
n16.9321
o0
o2
n-0.761544202225
v0
o2
n-1
o3
v1
o0
v2
o3
o2
n0.761544202225
n1
v3
n2
o5
o0
n33.6988
o0
o2
n-0.487388289424
v0
o2
n-1
o3
v1
o0
v2
o3
o2
n0.487388289424
n1
v3
n2
o5
o0
n52.3664
o0
o2
n-0.274155912801
v0
o2
n-1
o3
v1
o0
v2
o3
o2
n0.274155912801
n1
v3
n2
o5
o0
n70.163
o0
o2
n-0.121847072356
v0
o2
n-1
o3
v1
o0
v2
o3
o2
n0.121847072356
n1
v3
n2
o5
o0
n83.4221
o0
o2
n-0.030461768089
v0
o2
n-1
o3
v1
o0
v2
o3
o2
n0.030461768089
n1
v3
n2
x4
0 1.0
1 1.0
2 1.0
3 1.0
r
b
3
2 1e-05
2 1e-05
2 1e-05
k3
0
0
0
G0 4
0 0
1 0
2 0
3 0
